Version identifier: 20.1.0.0 | 2020-11-10 | 9bedb6d68
CPXPARAM_RandomSeed                              1234
CPXPARAM_TimeLimit                               3600
Tried aggregator 2 times.
MIP Presolve eliminated 0 rows and 65 columns.
Aggregator did 21 substitutions.
Reduced MIP has 485 rows, 882 columns, and 2625 nonzeros.
Reduced MIP has 462 binaries, 420 generals, 0 SOSs, and 0 indicators.
Presolve time = 0.01 sec. (2.57 ticks)
Found incumbent of value 14376.000000 after 0.02 sec. (5.85 ticks)
Probing time = 0.01 sec. (2.74 ticks)
Tried aggregator 1 time.
Detecting symmetries...
Reduced MIP has 485 rows, 882 columns, and 2625 nonzeros.
Reduced MIP has 462 binaries, 420 generals, 0 SOSs, and 0 indicators.
Presolve time = 0.00 sec. (1.96 ticks)
Probing time = 0.00 sec. (2.67 ticks)
Clique table members: 44.
MIP emphasis: balance optimality and feasibility.
MIP search method: dynamic search.
Parallel mode: deterministic, using up to 8 threads.
Root relaxation solution time = 0.00 sec. (5.39 ticks)

        Nodes                                         Cuts/
   Node  Left     Objective  IInf  Best Integer    Best Bound    ItCnt     Gap

*     0+    0                        14376.0000        0.0000           100.00%
      0     0     5844.5167    46    14376.0000     5844.5167      283   59.35%
      0     0     6258.8615    57    14376.0000      Cuts: 68      413   56.46%
      0     0     6541.0801    91    14376.0000      Cuts: 48      515   54.50%
*     0+    0                         7172.0000     6541.0801             8.80%
      0     0     6562.9173   104     7172.0000      Cuts: 31      589    8.49%
      0     0     6595.0441   111     7172.0000      Cuts: 31      692    8.04%
      0     0     6610.2225   113     7172.0000      Cuts: 19      774    7.83%
Detecting symmetries...
      0     0     6611.8826   112     7172.0000      Cuts: 12      814    7.81%
      0     0     6614.3866   123     7172.0000      Cuts: 19      863    7.77%
      0     0     6618.8832   126     7172.0000      Cuts: 23      916    7.71%
      0     0     6620.7358   132     7172.0000      Cuts: 21      946    7.69%
      0     0     6629.0545   126     7172.0000       Cuts: 7      981    7.57%
      0     0     6629.1930   128     7172.0000      Cuts: 10      996    7.57%
      0     0     6629.4347   115     7172.0000       Cuts: 7     1005    7.57%
      0     0     6629.4347   119     7172.0000       Cuts: 9     1014    7.57%
*     0+    0                         7133.0000     6629.4347             7.06%
Detecting symmetries...
      0     2     6629.4347   119     7133.0000     6665.5843     1014    6.55%
Elapsed time = 0.49 sec. (259.44 ticks, tree = 0.02 MB, solutions = 3)
*     3+    2                         7097.0000     6665.5843             6.08%
*    11+    4                         7087.0000     6665.5843             5.95%
*    51    15      integral     0     7059.0000     6665.5843     3503    5.57%
*    70    14      integral     0     7047.0000     6665.5843     4023    5.41%
*    71    12      integral     0     7019.0000     6665.5843     4374    5.04%
*    88     6      integral     0     7013.0000     6665.5843     5263    4.95%
    960   158     6916.3309    72     7013.0000     6741.5334    37556    3.87%

Cover cuts applied:  7
Implied bound cuts applied:  65
Flow cuts applied:  66
Mixed integer rounding cuts applied:  11
Zero-half cuts applied:  4
Lift and project cuts applied:  16
Gomory fractional cuts applied:  2

Root node processing (before b&c):
  Real time             =    0.47 sec. (259.10 ticks)
Parallel b&c, 8 threads:
  Real time             =    0.56 sec. (322.83 ticks)
  Sync time (average)   =    0.13 sec.
  Wait time (average)   =    0.00 sec.
                          ------------
Total (root+branch&cut) =    1.03 sec. (581.94 ticks)
